Welcome to the CBC MILP Solver 
Version: 2.10.7 
Build Date: Feb 14 2022 

command line - cbc inputs/new_tr/order/default20_down_left_input.lp sec 1800 solve solu solutions/new_tr/default20_down_left_input.lp (default strategy 1)
seconds was changed from 1e+100 to 1800
Continuous objective value is 24631.4 - 0.01 seconds
Cgl0002I 255 variables fixed
Cgl0003I 0 fixed, 1 tightened bounds, 91 strengthened rows, 0 substitutions
Cgl0003I 0 fixed, 0 tightened bounds, 1 strengthened rows, 0 substitutions
Cgl0004I processed model has 539 rows, 181 columns (181 integer (160 of which binary)) and 1754 elements
Cutoff increment increased from 1e-05 to 0.9999
Cbc0045I 1 integer variables out of 181 objects (181 integer) have cost of 1 - high priority
Cbc0045I branch on satisfied Y create fake objective Y random cost Y
Cbc0038I Initial state - 91 integers unsatisfied sum - 19.917
Cbc0038I Pass   1: suminf.    8.96542 (56) obj. 30236.9 iterations 158
Cbc0038I Pass   2: suminf.    8.51588 (55) obj. 32640.9 iterations 27
Cbc0038I Pass   3: suminf.    7.91947 (43) obj. 32305.1 iterations 97
Cbc0038I Pass   4: suminf.    7.52636 (45) obj. 31548.5 iterations 16
Cbc0038I Pass   5: suminf.    3.24392 (36) obj. 31155.7 iterations 87
Cbc0038I Pass   6: suminf.    1.10352 (35) obj. 31803.9 iterations 11
Cbc0038I Pass   7: suminf.    6.05038 (57) obj. 33682.2 iterations 98
Cbc0038I Pass   8: suminf.    5.67352 (53) obj. 33687.2 iterations 26
Cbc0038I Pass   9: suminf.    9.58428 (69) obj. 34909.8 iterations 106
Cbc0038I Pass  10: suminf.    4.28117 (41) obj. 32768 iterations 53
Cbc0038I Pass  11: suminf.    4.84528 (46) obj. 32767.9 iterations 78
Cbc0038I Pass  12: suminf.    3.21895 (23) obj. 32768 iterations 36
Cbc0038I Pass  13: suminf.    0.00000 (0) obj. 32768 iterations 4
Cbc0038I Solution found of 32768
Cbc0038I Cleaned solution of 32768
Cbc0038I Before mini branch and bound, 44 integers at bound fixed and 0 continuous
Cbc0038I Full problem 539 rows 181 columns, reduced to 435 rows 137 columns - 23 fixed gives 296, 85 - still too large
Cbc0038I Mini branch and bound did not improve solution (0.06 seconds)
Cbc0038I Round again with cutoff of 31956.3
Cbc0038I Pass  14: suminf.    8.96542 (56) obj. 30236.9 iterations 0
Cbc0038I Pass  15: suminf.    9.09667 (59) obj. 31956.3 iterations 14
Cbc0038I Pass  16: suminf.   10.04919 (54) obj. 30613.8 iterations 124
Cbc0038I Pass  17: suminf.    9.73963 (53) obj. 30273.9 iterations 3
Cbc0038I Pass  18: suminf.    2.39160 (46) obj. 30314.5 iterations 65
Cbc0038I Pass  19: suminf.    1.13116 (45) obj. 30395.1 iterations 13
Cbc0038I Pass  20: suminf.    7.81917 (50) obj. 31956.3 iterations 89
Cbc0038I Pass  21: suminf.    6.22801 (45) obj. 31956.3 iterations 48
Cbc0038I Pass  22: suminf.    5.14962 (50) obj. 31956.3 iterations 37
Cbc0038I Pass  23: suminf.    4.87511 (49) obj. 31956.3 iterations 3
Cbc0038I Pass  24: suminf.   10.66649 (50) obj. 31956.3 iterations 158
Cbc0038I Pass  25: suminf.    4.25379 (30) obj. 31956.3 iterations 50
Cbc0038I Pass  26: suminf.    6.30874 (58) obj. 31956.3 iterations 95
Cbc0038I Pass  27: suminf.    4.22458 (42) obj. 31956.3 iterations 29
Cbc0038I Pass  28: suminf.    3.78036 (46) obj. 31956.3 iterations 12
Cbc0038I Pass  29: suminf.   10.62996 (64) obj. 31956.3 iterations 118
Cbc0038I Pass  30: suminf.   10.39903 (55) obj. 31956.3 iterations 36
Cbc0038I Pass  31: suminf.    7.78116 (34) obj. 31956.3 iterations 97
Cbc0038I Pass  32: suminf.    1.94311 (30) obj. 31956.3 iterations 64
Cbc0038I Pass  33: suminf.    1.94311 (30) obj. 31956.3 iterations 1
Cbc0038I Pass  34: suminf.    5.63890 (33) obj. 31956.3 iterations 97
Cbc0038I Pass  35: suminf.    3.83615 (40) obj. 31956.3 iterations 35
Cbc0038I Pass  36: suminf.    3.44427 (48) obj. 29086.4 iterations 27
Cbc0038I Pass  37: suminf.    9.52378 (57) obj. 31956.3 iterations 90
Cbc0038I Pass  38: suminf.    8.77023 (52) obj. 31956.3 iterations 14
Cbc0038I Pass  39: suminf.    5.65441 (45) obj. 31956.3 iterations 23
Cbc0038I Pass  40: suminf.    3.35577 (35) obj. 31956.3 iterations 15
Cbc0038I Pass  41: suminf.    4.09667 (31) obj. 31956.3 iterations 69
Cbc0038I Pass  42: suminf.    2.78605 (27) obj. 29762.3 iterations 42
Cbc0038I Pass  43: suminf.    5.63209 (22) obj. 31956.3 iterations 85
Cbc0038I Pass  44: suminf.    5.52731 (23) obj. 31956.3 iterations 7
Cbc0038I Pass  45: suminf.    3.33718 (14) obj. 31956.3 iterations 42
Cbc0038I Pass  46: suminf.    2.73281 (14) obj. 31956.3 iterations 18
Cbc0038I Pass  47: suminf.    1.25410 (24) obj. 31956.3 iterations 40
Cbc0038I Pass  48: suminf.    3.64392 (32) obj. 31956.3 iterations 70
Cbc0038I Pass  49: suminf.    2.34636 (28) obj. 31956.3 iterations 4
Cbc0038I Pass  50: suminf.    4.96675 (35) obj. 31956.3 iterations 151
Cbc0038I Pass  51: suminf.    3.92696 (37) obj. 31956.3 iterations 46
Cbc0038I Pass  52: suminf.   12.59061 (53) obj. 31956.3 iterations 61
Cbc0038I Pass  53: suminf.    9.97649 (48) obj. 31956.3 iterations 40
Cbc0038I Pass  54: suminf.    9.78981 (41) obj. 31956.3 iterations 11
Cbc0038I Pass  55: suminf.    6.68892 (31) obj. 31956.3 iterations 95
Cbc0038I Pass  56: suminf.    5.49044 (36) obj. 31956.3 iterations 11
Cbc0038I Pass  57: suminf.    2.48219 (38) obj. 31956.3 iterations 38
Cbc0038I Pass  58: suminf.    6.97675 (33) obj. 31956.3 iterations 73
Cbc0038I Pass  59: suminf.    5.78361 (34) obj. 31956.3 iterations 43
Cbc0038I Pass  60: suminf.   10.11799 (37) obj. 31956.3 iterations 82
Cbc0038I Pass  61: suminf.    7.69862 (58) obj. 31956.3 iterations 41
Cbc0038I Pass  62: suminf.   13.69602 (55) obj. 31956.3 iterations 58
Cbc0038I Pass  63: suminf.    7.21024 (37) obj. 31956.3 iterations 39
Cbc0038I Pass  64: suminf.    7.16294 (29) obj. 31956.3 iterations 7
Cbc0038I Pass  65: suminf.    4.82883 (40) obj. 31956.3 iterations 132
Cbc0038I Pass  66: suminf.    4.68357 (35) obj. 31956.3 iterations 71
Cbc0038I Pass  67: suminf.    8.76514 (45) obj. 31956.3 iterations 84
Cbc0038I Pass  68: suminf.    8.25352 (40) obj. 31956.3 iterations 13
Cbc0038I Pass  69: suminf.    7.24513 (54) obj. 31956.3 iterations 24
Cbc0038I Pass  70: suminf.    9.38393 (47) obj. 31956.3 iterations 51
Cbc0038I Pass  71: suminf.    7.26889 (40) obj. 31956.3 iterations 32
Cbc0038I Pass  72: suminf.    1.72403 (23) obj. 31956.3 iterations 28
Cbc0038I Pass  73: suminf.    1.18230 (27) obj. 31956.3 iterations 28
Cbc0038I Pass  74: suminf.    8.08983 (47) obj. 31956.3 iterations 77
Cbc0038I Pass  75: suminf.    7.89474 (49) obj. 31956.3 iterations 18
Cbc0038I Pass  76: suminf.    7.45424 (54) obj. 31956.3 iterations 35
Cbc0038I Pass  77: suminf.    2.30044 (21) obj. 29696 iterations 114
Cbc0038I Pass  78: suminf.    1.53986 (13) obj. 29696 iterations 18
Cbc0038I Pass  79: suminf.    0.00000 (0) obj. 29696 iterations 10
Cbc0038I Solution found of 29696
Cbc0038I Cleaned solution of 29696
Cbc0038I Before mini branch and bound, 25 integers at bound fixed and 0 continuous
Cbc0038I Mini branch and bound did not improve solution (0.19 seconds)
Cbc0038I Round again with cutoff of 28688
Cbc0038I Reduced cost fixing fixed 2 variables on major pass 3
Cbc0038I Pass  80: suminf.    8.75990 (61) obj. 28687 iterations 9
Cbc0038I Pass  81: suminf.    8.48013 (58) obj. 28688 iterations 12
Cbc0038I Pass  82: suminf.    2.05918 (18) obj. 28688 iterations 97
Cbc0038I Pass  83: suminf.    2.05918 (18) obj. 28688 iterations 7
Cbc0038I Pass  84: suminf.    1.48926 (20) obj. 28688 iterations 44
Cbc0038I Pass  85: suminf.    0.01084 (1) obj. 28688 iterations 13
Cbc0038I Solution found of 28688
Cbc0038I Branch and bound needed to clear up 1 general integers
Cbc0038I Full problem 540 rows 181 columns, reduced to 0 rows 0 columns
Cbc0038I Cleaned solution of 28672
Cbc0038I Before mini branch and bound, 74 integers at bound fixed and 0 continuous
Cbc0038I Full problem 539 rows 181 columns, reduced to 371 rows 107 columns - 34 fixed gives 93, 32 - ok now
Cbc0038I Full problem 539 rows 181 columns, reduced to 35 rows 14 columns
Cbc0038I Mini branch and bound improved solution from 28672 to 27648 (0.20 seconds)
Cbc0038I Round again with cutoff of 26750.9
Cbc0038I Reduced cost fixing fixed 3 variables on major pass 4
Cbc0038I Pass  86: suminf.    8.62667 (63) obj. 26750.9 iterations 19
Cbc0038I Pass  87: suminf.    7.88123 (59) obj. 26750.9 iterations 46
Cbc0038I Pass  88: suminf.    4.39040 (25) obj. 26750.9 iterations 129
Cbc0038I Pass  89: suminf.    4.39040 (25) obj. 26750.9 iterations 2
Cbc0038I Pass  90: suminf.    2.56937 (14) obj. 26750.9 iterations 49
Cbc0038I Pass  91: suminf.    2.30457 (19) obj. 26750.9 iterations 19
Cbc0038I Pass  92: suminf.    2.21980 (9) obj. 26750.9 iterations 60
Cbc0038I Pass  93: suminf.    2.21980 (9) obj. 26750.9 iterations 6
Cbc0038I Pass  94: suminf.    1.04197 (9) obj. 26750.9 iterations 25
Cbc0038I Pass  95: suminf.    0.99240 (6) obj. 26750.9 iterations 3
Cbc0038I Pass  96: suminf.    7.82650 (33) obj. 26750.9 iterations 84
Cbc0038I Pass  97: suminf.    0.99240 (6) obj. 26750.9 iterations 54
Cbc0038I Pass  98: suminf.    0.99240 (6) obj. 26750.9 iterations 8
Cbc0038I Pass  99: suminf.    2.21980 (9) obj. 26750.9 iterations 22
Cbc0038I Pass 100: suminf.    1.04197 (9) obj. 26750.9 iterations 22
Cbc0038I Pass 101: suminf.    4.18385 (35) obj. 26750.9 iterations 75
Cbc0038I Pass 102: suminf.   13.28995 (78) obj. 26750.9 iterations 120
Cbc0038I Pass 103: suminf.    9.26442 (78) obj. 26750.9 iterations 65
Cbc0038I Pass 104: suminf.    8.73004 (79) obj. 26750.9 iterations 18
Cbc0038I Pass 105: suminf.   13.26401 (61) obj. 26750.9 iterations 98
Cbc0038I Pass 106: suminf.    5.12607 (39) obj. 26750.9 iterations 60
Cbc0038I Pass 107: suminf.    5.12607 (39) obj. 26750.9 iterations 3
Cbc0038I Pass 108: suminf.    8.26018 (38) obj. 26750.9 iterations 102
Cbc0038I Pass 109: suminf.    7.92025 (50) obj. 26750.9 iterations 39
Cbc0038I Pass 110: suminf.    9.11835 (62) obj. 26750.9 iterations 135
Cbc0038I Pass 111: suminf.    7.94743 (68) obj. 26750.9 iterations 30
Cbc0038I Pass 112: suminf.    5.11895 (57) obj. 26750.9 iterations 109
Cbc0038I Pass 113: suminf.    2.67222 (53) obj. 26750.9 iterations 123
Cbc0038I Pass 114: suminf.    7.96728 (46) obj. 26750.9 iterations 90
Cbc0038I Pass 115: suminf.    5.50357 (31) obj. 26750.9 iterations 38
Cbc0038I Pass 116: suminf.    8.82662 (43) obj. 26750.9 iterations 77
Cbc0038I Pass 117: suminf.    6.88956 (38) obj. 26750.9 iterations 30
Cbc0038I Pass 118: suminf.    3.68535 (47) obj. 26750.9 iterations 79
Cbc0038I Pass 119: suminf.    2.15041 (42) obj. 26750.9 iterations 27
Cbc0038I Pass 120: suminf.    3.59886 (28) obj. 26750.9 iterations 67
Cbc0038I Pass 121: suminf.    3.58614 (27) obj. 26750.9 iterations 1
Cbc0038I Pass 122: suminf.    4.86762 (20) obj. 26750.9 iterations 70
Cbc0038I Pass 123: suminf.    2.21980 (9) obj. 26750.9 iterations 93
Cbc0038I Pass 124: suminf.    0.79605 (15) obj. 26750.9 iterations 21
Cbc0038I Pass 125: suminf.    0.74648 (12) obj. 26750.9 iterations 3
Cbc0038I Pass 126: suminf.    3.57673 (42) obj. 26750.9 iterations 72
Cbc0038I Pass 127: suminf.    9.89326 (55) obj. 26750.9 iterations 59
Cbc0038I Pass 128: suminf.    7.62995 (39) obj. 26750.9 iterations 78
Cbc0038I Pass 129: suminf.    3.53478 (19) obj. 26750.9 iterations 8
Cbc0038I Pass 130: suminf.    3.09589 (14) obj. 26750.9 iterations 76
Cbc0038I Pass 131: suminf.    3.09589 (14) obj. 26750.9 iterations 1
Cbc0038I Pass 132: suminf.    0.79605 (15) obj. 26750.9 iterations 38
Cbc0038I Pass 133: suminf.    0.74648 (12) obj. 26750.9 iterations 4
Cbc0038I Pass 134: suminf.    3.57673 (42) obj. 26750.9 iterations 59
Cbc0038I Pass 135: suminf.    9.76382 (57) obj. 26750.9 iterations 67
Cbc0038I Pass 136: suminf.    5.71478 (41) obj. 26750.9 iterations 31
Cbc0038I Pass 137: suminf.    7.57633 (37) obj. 26750.9 iterations 81
Cbc0038I Pass 138: suminf.    5.78814 (35) obj. 26750.9 iterations 30
Cbc0038I Pass 139: suminf.    5.78814 (35) obj. 26750.9 iterations 5
Cbc0038I Pass 140: suminf.    2.66548 (21) obj. 26750.9 iterations 72
Cbc0038I Pass 141: suminf.    2.43373 (21) obj. 26750.9 iterations 21
Cbc0038I Pass 142: suminf.    4.70291 (22) obj. 26750.9 iterations 43
Cbc0038I Pass 143: suminf.    4.35484 (22) obj. 26750.9 iterations 11
Cbc0038I Pass 144: suminf.    4.53999 (24) obj. 26750.9 iterations 53
Cbc0038I Pass 145: suminf.    3.66113 (24) obj. 26750.9 iterations 8
Cbc0038I Pass 146: suminf.    4.75248 (25) obj. 26750.9 iterations 38
Cbc0038I Pass 147: suminf.    7.96839 (50) obj. 26750.9 iterations 101
Cbc0038I Pass 148: suminf.    5.04620 (27) obj. 26750.9 iterations 67
Cbc0038I Pass 149: suminf.    4.75563 (27) obj. 26750.9 iterations 39
Cbc0038I Pass 150: suminf.    3.71193 (24) obj. 26750.9 iterations 12
Cbc0038I Pass 151: suminf.    5.31913 (27) obj. 26750.9 iterations 41
Cbc0038I Pass 152: suminf.    4.76033 (27) obj. 26750.9 iterations 3
Cbc0038I Pass 153: suminf.    4.55172 (27) obj. 26750.9 iterations 58
Cbc0038I Pass 154: suminf.    3.78963 (22) obj. 26750.9 iterations 28
Cbc0038I Pass 155: suminf.    4.76964 (23) obj. 26750.9 iterations 60
Cbc0038I Pass 156: suminf.    2.60917 (13) obj. 26750.9 iterations 21
Cbc0038I Pass 157: suminf.    1.04197 (9) obj. 26750.9 iterations 39
Cbc0038I Pass 158: suminf.    0.99240 (6) obj. 26750.9 iterations 2
Cbc0038I Pass 159: suminf.    2.21980 (9) obj. 26750.9 iterations 28
Cbc0038I Pass 160: suminf.   10.80584 (68) obj. 26750.9 iterations 71
Cbc0038I Pass 161: suminf.    4.91438 (37) obj. 26750.9 iterations 95
Cbc0038I Pass 162: suminf.    8.81621 (67) obj. 26750.9 iterations 103
Cbc0038I Pass 163: suminf.    5.11659 (23) obj. 26750.9 iterations 54
Cbc0038I Pass 164: suminf.    2.24313 (12) obj. 26750.9 iterations 64
Cbc0038I Pass 165: suminf.    2.24313 (12) obj. 26750.9 iterations 4
Cbc0038I Pass 166: suminf.    0.99240 (6) obj. 26750.9 iterations 27
Cbc0038I Pass 167: suminf.    2.21980 (9) obj. 26750.9 iterations 23
Cbc0038I Pass 168: suminf.    1.04197 (9) obj. 26750.9 iterations 17
Cbc0038I Pass 169: suminf.   11.83227 (88) obj. 26750.9 iterations 114
Cbc0038I Pass 170: suminf.    8.24706 (55) obj. 26750.9 iterations 68
Cbc0038I Pass 171: suminf.    8.22423 (30) obj. 26750.9 iterations 101
Cbc0038I Pass 172: suminf.    3.71960 (16) obj. 26750.9 iterations 46
Cbc0038I Pass 173: suminf.    4.60374 (36) obj. 26750.9 iterations 74
Cbc0038I Pass 174: suminf.    4.73492 (19) obj. 26750.9 iterations 27
Cbc0038I Pass 175: suminf.    6.01533 (40) obj. 26750.9 iterations 56
Cbc0038I Pass 176: suminf.    3.92019 (34) obj. 26750.9 iterations 18
Cbc0038I Pass 177: suminf.    3.75764 (17) obj. 26750.9 iterations 11
Cbc0038I Pass 178: suminf.    3.71960 (16) obj. 26750.9 iterations 9
Cbc0038I Pass 179: suminf.    4.60374 (36) obj. 26750.9 iterations 68
Cbc0038I Pass 180: suminf.    4.73492 (19) obj. 26750.9 iterations 28
Cbc0038I Pass 181: suminf.    3.42591 (36) obj. 26750.9 iterations 66
Cbc0038I Pass 182: suminf.    3.50753 (16) obj. 26750.9 iterations 32
Cbc0038I Pass 183: suminf.    7.19583 (38) obj. 26750.9 iterations 60
Cbc0038I Pass 184: suminf.    5.14758 (37) obj. 26750.9 iterations 10
Cbc0038I Pass 185: suminf.    8.44897 (38) obj. 26750.9 iterations 79
Cbc0038I No solution found this major pass
Cbc0038I Before mini branch and bound, 13 integers at bound fixed and 0 continuous
Cbc0038I Full problem 539 rows 181 columns, reduced to 504 rows 168 columns - 56 fixed gives 185, 66 - ok now
Cbc0038I Mini branch and bound did not improve solution (0.39 seconds)
Cbc0038I After 0.39 seconds - Feasibility pump exiting with objective of 27648 - took 0.36 seconds
Cbc0012I Integer solution of 27648 found by feasibility pump after 0 iterations and 0 nodes (0.39 seconds)
Cbc0038I Full problem 539 rows 181 columns, reduced to 272 rows 91 columns - 30 fixed gives 46, 19 - ok now
Cbc0006I The LP relaxation is infeasible or too expensive
Cbc0013I At root node, 0 cuts changed objective from 24659.945 to 27648 in 1 passes
Cbc0014I Cut generator 0 (Probing) - 107 row cuts average 2.0 elements, 30 column cuts (30 active)  in 0.001 seconds - new frequency is 1
Cbc0014I Cut generator 1 (Gomory) - 0 row cuts average 0.0 elements, 0 column cuts (0 active)  in 0.000 seconds - new frequency is -100
Cbc0014I Cut generator 2 (Knapsack) - 0 row cuts average 0.0 elements, 0 column cuts (0 active)  in 0.000 seconds - new frequency is -100
Cbc0014I Cut generator 3 (Clique) - 0 row cuts average 0.0 elements, 0 column cuts (0 active)  in 0.000 seconds - new frequency is -100
Cbc0014I Cut generator 4 (MixedIntegerRounding2) - 0 row cuts average 0.0 elements, 0 column cuts (0 active)  in 0.000 seconds - new frequency is -100
Cbc0014I Cut generator 5 (FlowCover) - 0 row cuts average 0.0 elements, 0 column cuts (0 active)  in 0.000 seconds - new frequency is -100
Cbc0014I Cut generator 7 (ZeroHalf) - 0 row cuts average 0.0 elements, 0 column cuts (0 active)  in 0.000 seconds - new frequency is -100
Cbc0001I Search completed - best objective 27648, took 0 iterations and 0 nodes (0.41 seconds)
Cbc0035I Maximum depth 0, 2 variables fixed on reduced cost
Cuts at root node changed objective from 24659.9 to 27648
Probing was tried 1 times and created 137 cuts of which 0 were active after adding rounds of cuts (0.001 seconds)
Gomory was tried 0 times and created 0 cuts of which 0 were active after adding rounds of cuts (0.000 seconds)
Knapsack was tried 0 times and created 0 cuts of which 0 were active after adding rounds of cuts (0.000 seconds)
Clique was tried 0 times and created 0 cuts of which 0 were active after adding rounds of cuts (0.000 seconds)
MixedIntegerRounding2 was tried 0 times and created 0 cuts of which 0 were active after adding rounds of cuts (0.000 seconds)
FlowCover was tried 0 times and created 0 cuts of which 0 were active after adding rounds of cuts (0.000 seconds)
TwoMirCuts was tried 0 times and created 0 cuts of which 0 were active after adding rounds of cuts (0.000 seconds)
ZeroHalf was tried 0 times and created 0 cuts of which 0 were active after adding rounds of cuts (0.000 seconds)

Result - Optimal solution found

Objective value:                27648.00000000
Enumerated nodes:               0
Total iterations:               0
Time (CPU seconds):             0.42
Time (Wallclock seconds):       0.42

Total time (CPU seconds):       0.42   (Wallclock seconds):       0.43

